(set-info :smt-lib-version 2.6)
(set-logic QF_NIA)
(set-info :source |
Generated by: Cristina Borralleras, Daniel Larraz, Albert Oliveras, Enric Rodriguez-Carbonell, Albert Rubio
Generated on: 2017-04-27
Generator: VeryMax
Application: Termination proving
Target solver: barcelogic
|)
(set-info :license "https://creativecommons.org/licenses/by/4.0/")
(set-info :category "industrial")
(set-info :status sat)
(declare-fun Nl1__const_347^01 () Int)
(declare-fun Nl1__const_5551^01 () Int)
(declare-fun Nl1__const_5552^01 () Int)
(declare-fun Nl1x0^01 () Int)
(declare-fun Nl1x1^01 () Int)
(declare-fun Nl1x2^01 () Int)
(declare-fun Nl1x3^01 () Int)
(declare-fun Nl1x4^01 () Int)
(declare-fun Nl1x5^01 () Int)
(declare-fun Nl1x6^01 () Int)
(declare-fun Nl1x7^01 () Int)
(declare-fun Nl20__const_347^01 () Int)
(declare-fun Nl20__const_5551^01 () Int)
(declare-fun Nl20__const_5552^01 () Int)
(declare-fun Nl20x0^01 () Int)
(declare-fun Nl20x1^01 () Int)
(declare-fun Nl20x2^01 () Int)
(declare-fun Nl20x3^01 () Int)
(declare-fun Nl20x4^01 () Int)
(declare-fun Nl20x5^01 () Int)
(declare-fun Nl20x6^01 () Int)
(declare-fun Nl20x7^01 () Int)
(declare-fun lam0n0 () Int)
(declare-fun lam0n1 () Int)
(declare-fun lam0n2 () Int)
(declare-fun lam0n3 () Int)
(declare-fun lam0n14 () Int)
(declare-fun Nl1CT1 () Int)
(declare-fun lam0n4 () Int)
(declare-fun lam0n5 () Int)
(declare-fun lam0n6 () Int)
(declare-fun lam0n7 () Int)
(declare-fun lam0n8 () Int)
(declare-fun lam0n9 () Int)
(declare-fun lam0n10 () Int)
(declare-fun lam0n11 () Int)
(declare-fun lam0n12 () Int)
(declare-fun lam0n13 () Int)
(declare-fun lam1n0 () Int)
(declare-fun lam1n1 () Int)
(declare-fun lam1n2 () Int)
(declare-fun lam1n3 () Int)
(declare-fun lam1n14 () Int)
(declare-fun Nl20CT1 () Int)
(declare-fun lam1n4 () Int)
(declare-fun lam1n5 () Int)
(declare-fun lam1n6 () Int)
(declare-fun lam1n7 () Int)
(declare-fun lam1n8 () Int)
(declare-fun lam1n9 () Int)
(declare-fun lam1n10 () Int)
(declare-fun lam1n11 () Int)
(declare-fun lam1n12 () Int)
(declare-fun lam1n13 () Int)
(declare-fun lam2n0 () Int)
(declare-fun lam2n1 () Int)
(declare-fun lam2n2 () Int)
(declare-fun lam2n3 () Int)
(declare-fun lam2n4 () Int)
(declare-fun lam2n5 () Int)
(declare-fun lam2n18 () Int)
(declare-fun lam2n6 () Int)
(declare-fun lam2n7 () Int)
(declare-fun lam2n8 () Int)
(declare-fun lam2n9 () Int)
(declare-fun lam2n10 () Int)
(declare-fun lam2n11 () Int)
(declare-fun lam2n12 () Int)
(declare-fun lam2n13 () Int)
(declare-fun lam2n14 () Int)
(declare-fun lam2n15 () Int)
(declare-fun lam2n16 () Int)
(declare-fun lam2n17 () Int)
(declare-fun lam3n0 () Int)
(declare-fun lam3n1 () Int)
(declare-fun lam3n2 () Int)
(declare-fun lam3n3 () Int)
(declare-fun lam3n4 () Int)
(declare-fun lam3n5 () Int)
(declare-fun lam3n18 () Int)
(declare-fun lam3n6 () Int)
(declare-fun lam3n7 () Int)
(declare-fun lam3n8 () Int)
(declare-fun lam3n9 () Int)
(declare-fun lam3n10 () Int)
(declare-fun lam3n11 () Int)
(declare-fun lam3n12 () Int)
(declare-fun lam3n13 () Int)
(declare-fun lam3n14 () Int)
(declare-fun lam3n15 () Int)
(declare-fun lam3n16 () Int)
(declare-fun lam3n17 () Int)
(declare-fun lam4n0 () Int)
(declare-fun lam4n1 () Int)
(declare-fun lam5n0 () Int)
(declare-fun lam5n1 () Int)
(declare-fun lam5n2 () Int)
(declare-fun lam5n3 () Int)
(declare-fun lam5n4 () Int)
(declare-fun lam5n5 () Int)
(declare-fun lam5n6 () Int)
(declare-fun lam6n0 () Int)
(declare-fun lam6n1 () Int)
(declare-fun lam6n2 () Int)
(declare-fun lam7n0 () Int)
(declare-fun lam7n1 () Int)
(declare-fun lam7n2 () Int)
(declare-fun lam7n3 () Int)
(declare-fun lam7n4 () Int)
(declare-fun lam7n5 () Int)
(declare-fun lam7n6 () Int)
(declare-fun lam7n7 () Int)
(declare-fun lam8n0 () Int)
(declare-fun lam8n1 () Int)
(declare-fun lam8n2 () Int)
(declare-fun lam8n3 () Int)
(declare-fun lam8n4 () Int)
(declare-fun lam8n5 () Int)
(declare-fun lam8n6 () Int)
(declare-fun __const_5551^0 () Int)
(declare-fun __const_5552^0 () Int)
(declare-fun x4^0 () Int)
(declare-fun __const_347^0 () Int)
(declare-fun x0^0 () Int)
(declare-fun x1^0 () Int)
(declare-fun x2^0 () Int)
(declare-fun x3^0 () Int)
(declare-fun x5^0 () Int)
(declare-fun x6^0 () Int)
(declare-fun x7^0 () Int)
(declare-fun undef788 () Int)
(declare-fun undef776 () Int)
(declare-fun undef784 () Int)
(declare-fun undef785 () Int)
(declare-fun undef786 () Int)
(declare-fun undef777 () Int)
(declare-fun undef791 () Int)
(declare-fun undef792 () Int)
(declare-fun undef979 () Int)
(declare-fun undef968 () Int)
(declare-fun undef976 () Int)
(declare-fun undef977 () Int)
(declare-fun undef978 () Int)
(declare-fun undef983 () Int)
(declare-fun __const_15^0 () Int)
(declare-fun undef144 () Int)
(declare-fun undef136 () Int)
(declare-fun undef145 () Int)
(declare-fun undef146 () Int)
(declare-fun undef137 () Int)
(declare-fun undef151 () Int)
(declare-fun undef152 () Int)
(declare-fun lam12n0 () Int)
(declare-fun lam12n1 () Int)
(declare-fun lam12n2 () Int)
(declare-fun lam12n3 () Int)
(declare-fun lam12n4 () Int)
(declare-fun lam12n5 () Int)
(declare-fun lam12n6 () Int)
(declare-fun lam12n29 () Int)
(declare-fun RFN1_CT () Int)
(declare-fun RFN1_x0^0 () Int)
(declare-fun RFN1_x1^0 () Int)
(declare-fun RFN1_x2^0 () Int)
(declare-fun RFN1_x3^0 () Int)
(declare-fun RFN1_x4^0 () Int)
(declare-fun RFN1_x5^0 () Int)
(declare-fun RFN1_x6^0 () Int)
(declare-fun RFN1_x7^0 () Int)
(declare-fun lam12n7 () Int)
(declare-fun RFN1___const_347^0 () Int)
(declare-fun RFN1___const_5551^0 () Int)
(declare-fun lam12n8 () Int)
(declare-fun RFN1___const_5552^0 () Int)
(declare-fun lam12n9 () Int)
(declare-fun lam12n10 () Int)
(declare-fun lam12n11 () Int)
(declare-fun lam12n12 () Int)
(declare-fun lam12n13 () Int)
(declare-fun lam12n14 () Int)
(declare-fun lam12n15 () Int)
(declare-fun lam12n16 () Int)
(declare-fun lam12n17 () Int)
(declare-fun lam12n18 () Int)
(declare-fun lam12n19 () Int)
(declare-fun lam12n20 () Int)
(declare-fun lam12n21 () Int)
(declare-fun lam12n22 () Int)
(declare-fun lam12n23 () Int)
(declare-fun lam12n24 () Int)
(declare-fun lam12n25 () Int)
(declare-fun lam12n26 () Int)
(declare-fun lam12n27 () Int)
(declare-fun lam12n28 () Int)
(declare-fun lam10n0 () Int)
(declare-fun lam10n1 () Int)
(declare-fun lam10n2 () Int)
(declare-fun lam10n3 () Int)
(declare-fun lam10n4 () Int)
(declare-fun lam10n5 () Int)
(declare-fun lam10n6 () Int)
(declare-fun lam10n29 () Int)
(declare-fun lam10n7 () Int)
(declare-fun lam10n8 () Int)
(declare-fun lam10n9 () Int)
(declare-fun lam10n10 () Int)
(declare-fun lam10n11 () Int)
(declare-fun lam10n12 () Int)
(declare-fun lam10n13 () Int)
(declare-fun lam10n14 () Int)
(declare-fun lam10n15 () Int)
(declare-fun lam10n16 () Int)
(declare-fun lam10n17 () Int)
(declare-fun lam10n18 () Int)
(declare-fun lam10n19 () Int)
(declare-fun lam10n20 () Int)
(declare-fun lam10n21 () Int)
(declare-fun lam10n22 () Int)
(declare-fun lam10n23 () Int)
(declare-fun lam10n24 () Int)
(declare-fun lam10n25 () Int)
(declare-fun lam10n26 () Int)
(declare-fun lam10n27 () Int)
(declare-fun lam10n28 () Int)
(declare-fun lam11n0 () Int)
(declare-fun lam11n1 () Int)
(declare-fun lam11n2 () Int)
(declare-fun lam11n3 () Int)
(declare-fun lam11n4 () Int)
(declare-fun lam11n5 () Int)
(declare-fun lam11n6 () Int)
(declare-fun lam11n29 () Int)
(declare-fun lam11n7 () Int)
(declare-fun lam11n8 () Int)
(declare-fun lam11n9 () Int)
(declare-fun lam11n10 () Int)
(declare-fun lam11n11 () Int)
(declare-fun lam11n12 () Int)
(declare-fun lam11n13 () Int)
(declare-fun lam11n14 () Int)
(declare-fun lam11n15 () Int)
(declare-fun lam11n16 () Int)
(declare-fun lam11n17 () Int)
(declare-fun lam11n18 () Int)
(declare-fun lam11n19 () Int)
(declare-fun lam11n20 () Int)
(declare-fun lam11n21 () Int)
(declare-fun lam11n22 () Int)
(declare-fun lam11n23 () Int)
(declare-fun lam11n24 () Int)
(declare-fun lam11n25 () Int)
(declare-fun lam11n26 () Int)
(declare-fun lam11n27 () Int)
(declare-fun lam11n28 () Int)
(declare-fun lam9n0 () Int)
(declare-fun lam9n1 () Int)
(declare-fun lam9n2 () Int)
(declare-fun lam9n3 () Int)
(declare-fun lam9n4 () Int)
(declare-fun lam9n5 () Int)
(declare-fun lam9n6 () Int)
(declare-fun lam9n29 () Int)
(declare-fun lam9n7 () Int)
(declare-fun lam9n8 () Int)
(declare-fun lam9n9 () Int)
(declare-fun lam9n10 () Int)
(declare-fun lam9n11 () Int)
(declare-fun lam9n12 () Int)
(declare-fun lam9n13 () Int)
(declare-fun lam9n14 () Int)
(declare-fun lam9n15 () Int)
(declare-fun lam9n16 () Int)
(declare-fun lam9n17 () Int)
(declare-fun lam9n18 () Int)
(declare-fun lam9n19 () Int)
(declare-fun lam9n20 () Int)
(declare-fun lam9n21 () Int)
(declare-fun lam9n22 () Int)
(declare-fun lam9n23 () Int)
(declare-fun lam9n24 () Int)
(declare-fun lam9n25 () Int)
(declare-fun lam9n26 () Int)
(declare-fun lam9n27 () Int)
(declare-fun lam9n28 () Int)
(assert ( and ( <= ( - 1 ) Nl1__const_347^01 ) ( <= Nl1__const_347^01 1 ) ( <= ( - 1 ) Nl1__const_5551^01 ) ( <= Nl1__const_5551^01 1 ) ( <= ( - 1 ) Nl1__const_5552^01 ) ( <= Nl1__const_5552^01 1 ) ( <= ( - 1 ) Nl1x0^01 ) ( <= Nl1x0^01 1 ) ( <= ( - 1 ) Nl1x1^01 ) ( <= Nl1x1^01 1 ) ( <= ( - 1 ) Nl1x2^01 ) ( <= Nl1x2^01 1 ) ( <= ( - 1 ) Nl1x3^01 ) ( <= Nl1x3^01 1 ) ( <= ( - 1 ) Nl1x4^01 ) ( <= Nl1x4^01 1 ) ( <= ( - 1 ) Nl1x5^01 ) ( <= Nl1x5^01 1 ) ( <= ( - 1 ) Nl1x6^01 ) ( <= Nl1x6^01 1 ) ( <= ( - 1 ) Nl1x7^01 ) ( <= Nl1x7^01 1 ) ( <= ( - 1 ) Nl20__const_347^01 ) ( <= Nl20__const_347^01 1 ) ( <= ( - 1 ) Nl20__const_5551^01 ) ( <= Nl20__const_5551^01 1 ) ( <= ( - 1 ) Nl20__const_5552^01 ) ( <= Nl20__const_5552^01 1 ) ( <= ( - 1 ) Nl20x0^01 ) ( <= Nl20x0^01 1 ) ( <= ( - 1 ) Nl20x1^01 ) ( <= Nl20x1^01 1 ) ( <= ( - 1 ) Nl20x2^01 ) ( <= Nl20x2^01 1 ) ( <= ( - 1 ) Nl20x3^01 ) ( <= Nl20x3^01 1 ) ( <= ( - 1 ) Nl20x4^01 ) ( <= Nl20x4^01 1 ) ( <= ( - 1 ) Nl20x5^01 ) ( <= Nl20x5^01 1 ) ( <= ( - 1 ) Nl20x6^01 ) ( <= Nl20x6^01 1 ) ( <= ( - 1 ) Nl20x7^01 ) ( <= Nl20x7^01 1 ) ))
(assert ( or ( and ( >= lam0n0 0 ) ( >= lam0n1 0 ) ( >= lam0n2 0 ) ( >= lam0n3 0 ) ( >= lam0n14 0 ) ( > ( + ( * 1 lam0n0 ) ( * 1 lam0n1 ) ( * 1 lam0n2 ) ( * 1 lam0n3 ) ( * Nl1CT1 lam0n14 ) ( - 1 ) ) 0 ) ( = ( + ( * 1 lam0n0 ) ( * Nl1__const_347^01 lam0n14 ) ) 0 ) ( = ( + ( * 1 lam0n1 ) ( * 1 lam0n2 ) ( * 1 lam0n3 ) ( * Nl1__const_5551^01 lam0n14 ) ) 0 ) ( = ( + ( * 1 lam0n1 ) ( * Nl1__const_5552^01 lam0n14 ) ) 0 ) ( = ( + ( * 1 lam0n4 ) ( * Nl1x0^01 lam0n14 ) ) 0 ) ( = ( + ( * 1 lam0n5 ) ( * Nl1x1^01 lam0n14 ) ) 0 ) ( = ( + ( * 1 lam0n6 ) ( * Nl1x2^01 lam0n14 ) ) 0 ) ( = ( + ( * 1 lam0n7 ) ( * Nl1x3^01 lam0n14 ) ) 0 ) ( = ( + ( * ( - 1 ) lam0n1 ) ( * ( - 1 ) lam0n2 ) ( * 1 lam0n8 ) ( * Nl1x4^01 lam0n14 ) ) 0 ) ( = ( * Nl1x5^01 lam0n14 ) 0 ) ( = ( * Nl1x6^01 lam0n14 ) 0 ) ( = ( * Nl1x7^01 lam0n14 ) 0 ) ( = ( + ( * ( - 1 ) lam0n4 ) ( * 1 lam0n9 ) ) 0 ) ( = ( + ( * ( - 1 ) lam0n5 ) ( * 1 lam0n10 ) ) 0 ) ( = ( + ( * ( - 1 ) lam0n6 ) ( * 1 lam0n11 ) ) 0 ) ( = ( + ( * ( - 1 ) lam0n7 ) ( * 1 lam0n12 ) ) 0 ) ( = ( + ( * ( - 1 ) lam0n3 ) ( * ( - 1 ) lam0n8 ) ( * 1 lam0n13 ) ) 0 ) ( = ( * ( - 1 ) lam0n9 ) 0 ) ( = ( * ( - 1 ) lam0n10 ) 0 ) ( = ( * ( - 1 ) lam0n11 ) 0 ) ( = ( * ( - 1 ) lam0n12 ) 0 ) ( = ( * ( - 1 ) lam0n13 ) 0 ) ) ( and ( >= lam1n0 0 ) ( >= lam1n1 0 ) ( >= lam1n2 0 ) ( >= lam1n3 0 ) ( >= lam1n14 0 ) ( > ( + ( * 1 lam1n0 ) ( * 1 lam1n1 ) ( * 1 lam1n2 ) ( * 1 lam1n3 ) ( * Nl1CT1 lam1n14 ) ( - 1 ( + ( + ( + ( + ( + ( + ( + ( + Nl20CT1 ( * Nl20x0^01 0 ) ) ( * Nl20x1^01 0 ) ) ( * Nl20x2^01 0 ) ) ( * Nl20x3^01 0 ) ) ( * Nl20x4^01 0 ) ) ( * Nl20x5^01 0 ) ) ( * Nl20x6^01 0 ) ) ( * Nl20x7^01 0 ) ) ) ) 0 ) ( = ( + ( * 1 lam1n0 ) ( * Nl1__const_347^01 lam1n14 ) ( - ( + ( + 0 Nl20__const_347^01 ) ( * Nl20x6^01 1 ) ) ) ) 0 ) ( = ( + ( * 1 lam1n1 ) ( * 1 lam1n2 ) ( * 1 lam1n3 ) ( * Nl1__const_5551^01 lam1n14 ) ( - ( + 0 Nl20__const_5551^01 ) ) ) 0 ) ( = ( + ( * 1 lam1n1 ) ( * Nl1__const_5552^01 lam1n14 ) ( - ( + ( + 0 Nl20__const_5552^01 ) ( * Nl20x5^01 ( - 1 ) ) ) ) ) 0 ) ( = ( + ( * 1 lam1n4 ) ( * Nl1x0^01 lam1n14 ) ) 0 ) ( = ( + ( * 1 lam1n5 ) ( * Nl1x1^01 lam1n14 ) ) 0 ) ( = ( + ( * 1 lam1n6 ) ( * Nl1x2^01 lam1n14 ) ) 0 ) ( = ( + ( * 1 lam1n7 ) ( * Nl1x3^01 lam1n14 ) ) 0 ) ( = ( + ( * ( - 1 ) lam1n1 ) ( * ( - 1 ) lam1n2 ) ( * 1 lam1n8 ) ( * Nl1x4^01 lam1n14 ) ) 0 ) ( = ( * Nl1x5^01 lam1n14 ) 0 ) ( = ( * Nl1x6^01 lam1n14 ) 0 ) ( = ( * Nl1x7^01 lam1n14 ) 0 ) ( = ( + ( * ( - 1 ) lam1n4 ) ( * 1 lam1n9 ) ) 0 ) ( = ( + ( * ( - 1 ) lam1n5 ) ( * 1 lam1n10 ) ) 0 ) ( = ( + ( * ( - 1 ) lam1n6 ) ( * 1 lam1n11 ) ) 0 ) ( = ( + ( * ( - 1 ) lam1n7 ) ( * 1 lam1n12 ) ) 0 ) ( = ( + ( * ( - 1 ) lam1n3 ) ( * ( - 1 ) lam1n8 ) ( * 1 lam1n13 ) ) 0 ) ( = ( + ( * ( - 1 ) lam1n9 ) ( - ( + 0 ( * Nl20x0^01 1 ) ) ) ) 0 ) ( = ( + ( * ( - 1 ) lam1n10 ) ( - ( + 0 ( * Nl20x1^01 1 ) ) ) ) 0 ) ( = ( + ( * ( - 1 ) lam1n11 ) ( - ( + 0 ( * Nl20x2^01 1 ) ) ) ) 0 ) ( = ( + ( * ( - 1 ) lam1n12 ) ( - ( + 0 ( * Nl20x3^01 1 ) ) ) ) 0 ) ( = ( + ( * ( - 1 ) lam1n13 ) ( - ( + ( + 0 ( * Nl20x4^01 1 ) ) ( * Nl20x5^01 1 ) ) ) ) 0 ) ( = ( - ( + 0 ( * Nl20x7^01 1 ) ) ) 0 ) ) ))
(assert ( or ( and ( >= lam2n0 0 ) ( >= lam2n1 0 ) ( >= lam2n2 0 ) ( >= lam2n3 0 ) ( >= lam2n4 0 ) ( >= lam2n5 0 ) ( >= lam2n18 0 ) ( > ( + ( * 1 lam2n1 ) ( * 1 lam2n2 ) ( * 1 lam2n3 ) ( * ( - 1 ) lam2n4 ) ( * ( - 2 ) lam2n5 ) ( * Nl20CT1 lam2n18 ) ( - 1 ) ) 0 ) ( = ( + ( * 1 lam2n1 ) ( * ( - 1 ) lam2n5 ) ( * Nl20__const_347^01 lam2n18 ) ) 0 ) ( = ( + ( * 1 lam2n2 ) ( * 1 lam2n3 ) ( * Nl20__const_5551^01 lam2n18 ) ) 0 ) ( = ( + ( * 1 lam2n2 ) ( * Nl20__const_5552^01 lam2n18 ) ) 0 ) ( = ( + ( * 1 lam2n6 ) ( * Nl20x0^01 lam2n18 ) ) 0 ) ( = ( + ( * 1 lam2n7 ) ( * Nl20x1^01 lam2n18 ) ) 0 ) ( = ( + ( * 1 lam2n8 ) ( * Nl20x2^01 lam2n18 ) ) 0 ) ( = ( + ( * 1 lam2n9 ) ( * Nl20x3^01 lam2n18 ) ) 0 ) ( = ( + ( * 1 lam2n10 ) ( * Nl20x4^01 lam2n18 ) ) 0 ) ( = ( + ( * ( - 1 ) lam2n2 ) ( * ( - 1 ) lam2n3 ) ( * 1 lam2n11 ) ( * Nl20x5^01 lam2n18 ) ) 0 ) ( = ( + ( * 1 lam2n5 ) ( * 1 lam2n12 ) ( * Nl20x6^01 lam2n18 ) ) 0 ) ( = ( * Nl20x7^01 lam2n18 ) 0 ) ( = ( * 1 lam2n13 ) 0 ) ( = ( * 1 lam2n14 ) 0 ) ( = ( * 1 lam2n15 ) 0 ) ( = ( * 1 lam2n16 ) 0 ) ( = ( * 1 lam2n17 ) 0 ) ( = ( + ( * ( - 1 ) lam2n6 ) ( * ( - 1 ) lam2n13 ) ) 0 ) ( = ( + ( * ( - 1 ) lam2n7 ) ( * ( - 1 ) lam2n14 ) ) 0 ) ( = ( + ( * ( - 1 ) lam2n8 ) ( * ( - 1 ) lam2n15 ) ) 0 ) ( = ( + ( * ( - 1 ) lam2n9 ) ( * ( - 1 ) lam2n16 ) ) 0 ) ( = ( * ( - 1 ) lam2n10 ) 0 ) ( = ( + ( * ( - 1 ) lam2n11 ) ( * ( - 1 ) lam2n17 ) ) 0 ) ( = ( + ( * 1 lam2n4 ) ( * ( - 1 ) lam2n12 ) ) 0 ) ) ( and ( >= lam3n0 0 ) ( >= lam3n1 0 ) ( >= lam3n2 0 ) ( >= lam3n3 0 ) ( >= lam3n4 0 ) ( >= lam3n5 0 ) ( >= lam3n18 0 ) ( > ( + ( * 1 lam3n1 ) ( * 1 lam3n2 ) ( * 1 lam3n3 ) ( * ( - 1 ) lam3n4 ) ( * ( - 2 ) lam3n5 ) ( * Nl20CT1 lam3n18 ) ( - 1 ( + ( + ( + ( + ( + ( + ( + ( + Nl1CT1 ( * Nl1x0^01 0 ) ) ( * Nl1x1^01 0 ) ) ( * Nl1x2^01 0 ) ) ( * Nl1x3^01 0 ) ) ( * Nl1x4^01 0 ) ) ( * Nl1x5^01 0 ) ) ( * Nl1x6^01 0 ) ) ( * Nl1x7^01 0 ) ) ) ) 0 ) ( = ( + ( * 1 lam3n1 ) ( * ( - 1 ) lam3n5 ) ( * Nl20__const_347^01 lam3n18 ) ( - ( + 0 Nl1__const_347^01 ) ) ) 0 ) ( = ( + ( * 1 lam3n2 ) ( * 1 lam3n3 ) ( * Nl20__const_5551^01 lam3n18 ) ( - ( + 0 Nl1__const_5551^01 ) ) ) 0 ) ( = ( + ( * 1 lam3n2 ) ( * Nl20__const_5552^01 lam3n18 ) ( - ( + 0 Nl1__const_5552^01 ) ) ) 0 ) ( = ( + ( * 1 lam3n6 ) ( * Nl20x0^01 lam3n18 ) ) 0 ) ( = ( + ( * 1 lam3n7 ) ( * Nl20x1^01 lam3n18 ) ) 0 ) ( = ( + ( * 1 lam3n8 ) ( * Nl20x2^01 lam3n18 ) ) 0 ) ( = ( + ( * 1 lam3n9 ) ( * Nl20x3^01 lam3n18 ) ) 0 ) ( = ( + ( * 1 lam3n10 ) ( * Nl20x4^01 lam3n18 ) ) 0 ) ( = ( + ( * ( - 1 ) lam3n2 ) ( * ( - 1 ) lam3n3 ) ( * 1 lam3n11 ) ( * Nl20x5^01 lam3n18 ) ) 0 ) ( = ( + ( * 1 lam3n5 ) ( * 1 lam3n12 ) ( * Nl20x6^01 lam3n18 ) ) 0 ) ( = ( * Nl20x7^01 lam3n18 ) 0 ) ( = ( + ( * 1 lam3n13 ) ( - ( + 0 ( * Nl1x0^01 1 ) ) ) ) 0 ) ( = ( - ( + 0 ( * Nl1x7^01 1 ) ) ) 0 ) ( = ( + ( * 1 lam3n14 ) ( - ( + 0 ( * Nl1x1^01 1 ) ) ) ) 0 ) ( = ( + ( * 1 lam3n15 ) ( - ( + 0 ( * Nl1x2^01 1 ) ) ) ) 0 ) ( = ( + ( * 1 lam3n16 ) ( - ( + 0 ( * Nl1x3^01 1 ) ) ) ) 0 ) ( = ( + ( * 1 lam3n17 ) ( - ( + 0 ( * Nl1x4^01 1 ) ) ) ) 0 ) ( = ( - ( + 0 ( * Nl1x5^01 1 ) ) ) 0 ) ( = ( - ( + 0 ( * Nl1x6^01 1 ) ) ) 0 ) ( = ( + ( * ( - 1 ) lam3n6 ) ( * ( - 1 ) lam3n13 ) ) 0 ) ( = ( + ( * ( - 1 ) lam3n7 ) ( * ( - 1 ) lam3n14 ) ) 0 ) ( = ( + ( * ( - 1 ) lam3n8 ) ( * ( - 1 ) lam3n15 ) ) 0 ) ( = ( + ( * ( - 1 ) lam3n9 ) ( * ( - 1 ) lam3n16 ) ) 0 ) ( = ( * ( - 1 ) lam3n10 ) 0 ) ( = ( + ( * ( - 1 ) lam3n11 ) ( * ( - 1 ) lam3n17 ) ) 0 ) ( = ( + ( * 1 lam3n4 ) ( * ( - 1 ) lam3n12 ) ) 0 ) ) ))
(assert ( or ( and ( not ( <= ( + ( * ( - 1 ) __const_5551^0 ) ( * ( - 1 ) __const_5552^0 ) x4^0 ) 0 ) ) ( not ( <= ( + ( * ( - 1 ) __const_5551^0 ) x4^0 ) 0 ) ) ( <= ( + Nl1CT1 ( * ( + 0 Nl1__const_347^01 ) __const_347^0 ) ( * ( + 0 Nl1__const_5551^01 ) __const_5551^0 ) ( * ( + 0 Nl1__const_5552^01 ) __const_5552^0 ) ( * ( + 0 Nl1x0^01 ) x0^0 ) ( * ( + 0 Nl1x1^01 ) x1^0 ) ( * ( + 0 Nl1x2^01 ) x2^0 ) ( * ( + 0 Nl1x3^01 ) x3^0 ) ( * ( + 0 Nl1x4^01 ) x4^0 ) ( * ( + 0 Nl1x5^01 ) x5^0 ) ( * ( + 0 Nl1x6^01 ) x6^0 ) ( * ( + 0 Nl1x7^01 ) x7^0 ) ) 0 ) ( <= ( + 1 __const_347^0 ) 0 ) ( <= ( + 1 __const_5551^0 ( * ( - 1 ) x4^0 ) ) 0 ) ) ( and ( not ( <= ( + ( * ( - 1 ) __const_5551^0 ) ( * ( - 1 ) __const_5552^0 ) undef788 ) 0 ) ) ( not ( <= ( + ( * ( - 1 ) __const_5551^0 ) undef788 ) 0 ) ) ( = ( + x0^0 ( * ( - 1 ) undef776 ) ) 0 ) ( = ( + x1^0 ( * ( - 1 ) undef784 ) ) 0 ) ( = ( + x2^0 ( * ( - 1 ) undef785 ) ) 0 ) ( = ( + x3^0 ( * ( - 1 ) undef786 ) ) 0 ) ( = ( + x5^0 ( * ( - 1 ) undef788 ) ) 0 ) ( <= ( + ( + ( + ( + ( + ( + ( + ( + ( + Nl1CT1 ( * Nl1x0^01 0 ) ) ( * Nl1x1^01 0 ) ) ( * Nl1x2^01 0 ) ) ( * Nl1x3^01 0 ) ) ( * Nl1x4^01 0 ) ) ( * Nl1x5^01 0 ) ) ( * Nl1x6^01 0 ) ) ( * Nl1x7^01 0 ) ) ( * ( + 0 Nl1__const_347^01 ) __const_347^0 ) ( * ( + 0 Nl1__const_5551^01 ) __const_5551^0 ) ( * ( + 0 Nl1__const_5552^01 ) __const_5552^0 ) ( * ( + 0 ( * Nl1x0^01 1 ) ) undef776 ) ( * ( + 0 ( * Nl1x7^01 1 ) ) undef777 ) ( * ( + 0 ( * Nl1x1^01 1 ) ) undef784 ) ( * ( + 0 ( * Nl1x2^01 1 ) ) undef785 ) ( * ( + 0 ( * Nl1x3^01 1 ) ) undef786 ) ( * ( + 0 ( * Nl1x4^01 1 ) ) undef788 ) ( * ( + 0 ( * Nl1x5^01 1 ) ) undef791 ) ( * ( + 0 ( * Nl1x6^01 1 ) ) undef792 ) ) 0 ) ( <= ( + 1 __const_347^0 ) 0 ) ( <= ( + 1 __const_5551^0 ( * ( - 1 ) undef788 ) ) 0 ) ) ( and ( not ( <= 1 0 ) ) ( not ( <= ( + ( * ( - 1 ) __const_5551^0 ) ( * ( - 1 ) __const_5552^0 ) x5^0 ) 0 ) ) ( not ( <= ( + ( * ( - 1 ) __const_5551^0 ) x5^0 ) 0 ) ) ( <= ( + Nl20CT1 ( * ( + 0 Nl20__const_347^01 ) __const_347^0 ) ( * ( + 0 Nl20__const_5551^01 ) __const_5551^0 ) ( * ( + 0 Nl20__const_5552^01 ) __const_5552^0 ) ( * ( + 0 Nl20x0^01 ) x0^0 ) ( * ( + 0 Nl20x1^01 ) x1^0 ) ( * ( + 0 Nl20x2^01 ) x2^0 ) ( * ( + 0 Nl20x3^01 ) x3^0 ) ( * ( + 0 Nl20x4^01 ) x4^0 ) ( * ( + 0 Nl20x5^01 ) x5^0 ) ( * ( + 0 Nl20x6^01 ) x6^0 ) ( * ( + 0 Nl20x7^01 ) x7^0 ) ) 0 ) ( <= ( + 1 __const_347^0 ) 0 ) ( <= ( + ( - 2 ) ( * ( - 1 ) __const_347^0 ) x6^0 ) 0 ) ) ( and ( not ( <= 1 0 ) ) ( not ( <= ( + ( * ( - 1 ) __const_5551^0 ) ( * ( - 1 ) __const_5552^0 ) undef979 ) 0 ) ) ( not ( <= ( + ( * ( - 1 ) __const_5551^0 ) ( * ( - 2 ) __const_5552^0 ) undef979 ) 0 ) ) ( = ( + x0^0 ( * ( - 1 ) undef968 ) ) 0 ) ( = ( + x1^0 ( * ( - 1 ) undef976 ) ) 0 ) ( = ( + x2^0 ( * ( - 1 ) undef977 ) ) 0 ) ( = ( + x3^0 ( * ( - 1 ) undef978 ) ) 0 ) ( = ( + x4^0 ( * ( - 1 ) undef979 ) ) 0 ) ( <= ( + ( + ( + ( + ( + ( + ( + ( + ( + Nl20CT1 ( * Nl20x0^01 0 ) ) ( * Nl20x1^01 0 ) ) ( * Nl20x2^01 0 ) ) ( * Nl20x3^01 0 ) ) ( * Nl20x4^01 0 ) ) ( * Nl20x5^01 0 ) ) ( * Nl20x6^01 0 ) ) ( * Nl20x7^01 0 ) ) ( * ( + ( + 0 Nl20__const_347^01 ) ( * Nl20x6^01 1 ) ) __const_347^0 ) ( * ( + 0 Nl20__const_5551^01 ) __const_5551^0 ) ( * ( + ( + 0 Nl20__const_5552^01 ) ( * Nl20x5^01 ( - 1 ) ) ) __const_5552^0 ) ( * ( + 0 ( * Nl20x0^01 1 ) ) undef968 ) ( * ( + 0 ( * Nl20x1^01 1 ) ) undef976 ) ( * ( + 0 ( * Nl20x2^01 1 ) ) undef977 ) ( * ( + 0 ( * Nl20x3^01 1 ) ) undef978 ) ( * ( + ( + 0 ( * Nl20x4^01 1 ) ) ( * Nl20x5^01 1 ) ) undef979 ) ( * ( + 0 ( * Nl20x7^01 1 ) ) undef983 ) ) 0 ) ( <= ( + 1 __const_347^0 ) 0 ) ( <= 0 0 ) ) ( and ( <= ( + 1 __const_15^0 ( * ( - 1 ) undef144 ) ) 0 ) ( not ( <= ( + ( * ( - 1 ) __const_5551^0 ) ( * ( - 1 ) __const_5552^0 ) undef144 ) 0 ) ) ( not ( <= ( + ( * ( - 1 ) __const_5551^0 ) undef144 ) 0 ) ) ( = ( + x0^0 ( * ( - 1 ) undef136 ) ) 0 ) ( = ( + x1^0 ( * ( - 1 ) undef144 ) ) 0 ) ( = ( + x2^0 ( * ( - 1 ) undef145 ) ) 0 ) ( = ( + x3^0 ( * ( - 1 ) undef146 ) ) 0 ) ( <= ( + ( + ( + ( + ( + ( + ( + ( + ( + Nl1CT1 ( * Nl1x0^01 0 ) ) ( * Nl1x1^01 0 ) ) ( * Nl1x2^01 0 ) ) ( * Nl1x3^01 0 ) ) ( * Nl1x4^01 0 ) ) ( * Nl1x5^01 0 ) ) ( * Nl1x6^01 0 ) ) ( * Nl1x7^01 0 ) ) ( * ( + 0 Nl1__const_347^01 ) __const_347^0 ) ( * ( + 0 Nl1__const_5551^01 ) __const_5551^0 ) ( * ( + 0 Nl1__const_5552^01 ) __const_5552^0 ) ( * ( + 0 ( * Nl1x0^01 1 ) ) undef136 ) ( * ( + 0 ( * Nl1x7^01 1 ) ) undef137 ) ( * ( + ( + 0 ( * Nl1x1^01 1 ) ) ( * Nl1x4^01 1 ) ) undef144 ) ( * ( + 0 ( * Nl1x2^01 1 ) ) undef145 ) ( * ( + 0 ( * Nl1x3^01 1 ) ) undef146 ) ( * ( + 0 ( * Nl1x5^01 1 ) ) undef151 ) ( * ( + 0 ( * Nl1x6^01 1 ) ) undef152 ) ) 0 ) ( <= ( + 1 __const_347^0 ) 0 ) ( <= ( + 1 __const_5551^0 ( * ( - 1 ) undef144 ) ) 0 ) ) ))
(assert ( or ( and ( and ( >= lam12n0 0 ) ( >= lam12n1 0 ) ( >= lam12n2 0 ) ( >= lam12n3 0 ) ( >= lam12n4 0 ) ( >= lam12n5 0 ) ( >= lam12n6 0 ) ( >= lam12n29 0 ) ( > ( + ( * 1 lam12n0 ) ( * 1 lam12n1 ) ( * 1 lam12n2 ) ( * 1 lam12n3 ) ( * 1 lam12n4 ) ( * 1 lam12n5 ) ( * ( - 1 ) lam12n6 ) ( * Nl1CT1 lam12n29 ) ( - 1 ( - ( + ( + ( + ( + ( + ( + ( + ( + RFN1_CT ( * RFN1_x0^0 0 ) ) ( * RFN1_x1^0 0 ) ) ( * RFN1_x2^0 0 ) ) ( * RFN1_x3^0 0 ) ) ( * RFN1_x4^0 0 ) ) ( * RFN1_x5^0 0 ) ) ( * RFN1_x6^0 0 ) ) ( * RFN1_x7^0 0 ) ) RFN1_CT ) ) ) 0 ) ( = ( + ( * 1 lam12n0 ) ( * 1 lam12n7 ) ( * Nl1__const_347^01 lam12n29 ) ( - ( - ( + 0 RFN1___const_347^0 ) RFN1___const_347^0 ) ) ) 0 ) ( = ( + ( * 1 lam12n1 ) ( * 1 lam12n2 ) ( * 1 lam12n3 ) ( * 1 lam12n4 ) ( * 1 lam12n5 ) ( * Nl1__const_5551^01 lam12n29 ) ( - ( - ( + 0 RFN1___const_5551^0 ) RFN1___const_5551^0 ) ) ) 0 ) ( = ( + ( * 1 lam12n1 ) ( * 1 lam12n2 ) ( * 2 lam12n3 ) ( * 1 lam12n8 ) ( * Nl1__const_5552^01 lam12n29 ) ( - ( - ( + 0 RFN1___const_5552^0 ) RFN1___const_5552^0 ) ) ) 0 ) ( = ( + ( * 1 lam12n9 ) ( * Nl1x0^01 lam12n29 ) ( - ( - RFN1_x0^0 ) ) ) 0 ) ( = ( + ( * 1 lam12n10 ) ( * Nl1x1^01 lam12n29 ) ( - ( - RFN1_x1^0 ) ) ) 0 ) ( = ( + ( * 1 lam12n11 ) ( * Nl1x2^01 lam12n29 ) ( - ( - RFN1_x2^0 ) ) ) 0 ) ( = ( + ( * 1 lam12n12 ) ( * Nl1x3^01 lam12n29 ) ( - ( - RFN1_x3^0 ) ) ) 0 ) ( = ( + ( * ( - 1 ) lam12n1 ) ( * ( - 1 ) lam12n4 ) ( * 1 lam12n13 ) ( * Nl1x4^01 lam12n29 ) ( - ( - RFN1_x4^0 ) ) ) 0 ) ( = ( + ( * Nl1x5^01 lam12n29 ) ( - ( - RFN1_x5^0 ) ) ) 0 ) ( = ( + ( * Nl1x6^01 lam12n29 ) ( - ( - RFN1_x6^0 ) ) ) 0 ) ( = ( + ( * Nl1x7^01 lam12n29 ) ( - ( - RFN1_x7^0 ) ) ) 0 ) ( = ( + ( * ( - 1 ) lam12n9 ) ( * 1 lam12n14 ) ) 0 ) ( = ( + ( * ( - 1 ) lam12n10 ) ( * 1 lam12n15 ) ) 0 ) ( = ( + ( * ( - 1 ) lam12n11 ) ( * 1 lam12n16 ) ) 0 ) ( = ( + ( * ( - 1 ) lam12n12 ) ( * 1 lam12n17 ) ) 0 ) ( = ( + ( * ( - 1 ) lam12n5 ) ( * ( - 1 ) lam12n13 ) ( * 1 lam12n18 ) ) 0 ) ( = ( + ( * 1 lam12n19 ) ( - ( + 0 ( * RFN1_x0^0 1 ) ) ) ) 0 ) ( = ( - ( + 0 ( * RFN1_x7^0 1 ) ) ) 0 ) ( = ( + ( * 1 lam12n20 ) ( - ( + 0 ( * RFN1_x1^0 1 ) ) ) ) 0 ) ( = ( + ( * 1 lam12n21 ) ( - ( + 0 ( * RFN1_x2^0 1 ) ) ) ) 0 ) ( = ( + ( * 1 lam12n22 ) ( - ( + 0 ( * RFN1_x3^0 1 ) ) ) ) 0 ) ( = ( + ( * 1 lam12n23 ) ( - ( + 0 ( * RFN1_x4^0 1 ) ) ) ) 0 ) ( = ( - ( + 0 ( * RFN1_x5^0 1 ) ) ) 0 ) ( = ( - ( + 0 ( * RFN1_x6^0 1 ) ) ) 0 ) ( = ( + ( * ( - 1 ) lam12n19 ) ( * 1 lam12n24 ) ) 0 ) ( = ( + ( * ( - 1 ) lam12n20 ) ( * 1 lam12n25 ) ) 0 ) ( = ( + ( * ( - 1 ) lam12n21 ) ( * 1 lam12n26 ) ) 0 ) ( = ( + ( * ( - 1 ) lam12n22 ) ( * 1 lam12n27 ) ) 0 ) ( = ( * 1 lam12n28 ) 0 ) ( = ( + ( * 1 lam12n8 ) ( * ( - 1 ) lam12n23 ) ) 0 ) ( = ( + ( * 1 lam12n6 ) ( * ( - 1 ) lam12n7 ) ) 0 ) ( = ( + ( * ( - 1 ) lam12n14 ) ( * ( - 1 ) lam12n24 ) ) 0 ) ( = ( + ( * ( - 1 ) lam12n15 ) ( * ( - 1 ) lam12n25 ) ) 0 ) ( = ( + ( * ( - 1 ) lam12n16 ) ( * ( - 1 ) lam12n26 ) ) 0 ) ( = ( + ( * ( - 1 ) lam12n17 ) ( * ( - 1 ) lam12n27 ) ) 0 ) ( = ( + ( * ( - 1 ) lam12n2 ) ( * ( - 1 ) lam12n3 ) ( * ( - 1 ) lam12n8 ) ( * ( - 1 ) lam12n18 ) ( * ( - 1 ) lam12n28 ) ) 0 ) ) ( and ( and ( >= lam10n0 0 ) ( >= lam10n1 0 ) ( >= lam10n2 0 ) ( >= lam10n3 0 ) ( >= lam10n4 0 ) ( >= lam10n5 0 ) ( >= lam10n6 0 ) ( >= lam10n29 0 ) ( > ( + ( * 1 lam10n0 ) ( * 1 lam10n1 ) ( * 1 lam10n2 ) ( * 1 lam10n3 ) ( * 1 lam10n4 ) ( * 1 lam10n5 ) ( * ( - 1 ) lam10n6 ) ( * Nl1CT1 lam10n29 ) ( - 1 ( - RFN1_CT ) ) ) 0 ) ( = ( + ( * 1 lam10n0 ) ( * 1 lam10n7 ) ( * Nl1__const_347^01 lam10n29 ) ( - ( - RFN1___const_347^0 ) ) ) 0 ) ( = ( + ( * 1 lam10n1 ) ( * 1 lam10n2 ) ( * 1 lam10n3 ) ( * 1 lam10n4 ) ( * 1 lam10n5 ) ( * Nl1__const_5551^01 lam10n29 ) ( - ( - RFN1___const_5551^0 ) ) ) 0 ) ( = ( + ( * 1 lam10n1 ) ( * 1 lam10n2 ) ( * 2 lam10n3 ) ( * 1 lam10n8 ) ( * Nl1__const_5552^01 lam10n29 ) ( - ( - RFN1___const_5552^0 ) ) ) 0 ) ( = ( + ( * 1 lam10n9 ) ( * Nl1x0^01 lam10n29 ) ( - ( - RFN1_x0^0 ) ) ) 0 ) ( = ( + ( * 1 lam10n10 ) ( * Nl1x1^01 lam10n29 ) ( - ( - RFN1_x1^0 ) ) ) 0 ) ( = ( + ( * 1 lam10n11 ) ( * Nl1x2^01 lam10n29 ) ( - ( - RFN1_x2^0 ) ) ) 0 ) ( = ( + ( * 1 lam10n12 ) ( * Nl1x3^01 lam10n29 ) ( - ( - RFN1_x3^0 ) ) ) 0 ) ( = ( + ( * ( - 1 ) lam10n1 ) ( * ( - 1 ) lam10n4 ) ( * 1 lam10n13 ) ( * Nl1x4^01 lam10n29 ) ( - ( - RFN1_x4^0 ) ) ) 0 ) ( = ( + ( * Nl1x5^01 lam10n29 ) ( - ( - RFN1_x5^0 ) ) ) 0 ) ( = ( + ( * Nl1x6^01 lam10n29 ) ( - ( - RFN1_x6^0 ) ) ) 0 ) ( = ( + ( * Nl1x7^01 lam10n29 ) ( - ( - RFN1_x7^0 ) ) ) 0 ) ( = ( + ( * ( - 1 ) lam10n9 ) ( * 1 lam10n14 ) ) 0 ) ( = ( + ( * ( - 1 ) lam10n10 ) ( * 1 lam10n15 ) ) 0 ) ( = ( + ( * ( - 1 ) lam10n11 ) ( * 1 lam10n16 ) ) 0 ) ( = ( + ( * ( - 1 ) lam10n12 ) ( * 1 lam10n17 ) ) 0 ) ( = ( + ( * ( - 1 ) lam10n5 ) ( * ( - 1 ) lam10n13 ) ( * 1 lam10n18 ) ) 0 ) ( = ( * 1 lam10n19 ) 0 ) ( = ( * 1 lam10n20 ) 0 ) ( = ( * 1 lam10n21 ) 0 ) ( = ( * 1 lam10n22 ) 0 ) ( = ( * 1 lam10n23 ) 0 ) ( = ( + ( * ( - 1 ) lam10n19 ) ( * 1 lam10n24 ) ) 0 ) ( = ( + ( * ( - 1 ) lam10n20 ) ( * 1 lam10n25 ) ) 0 ) ( = ( + ( * ( - 1 ) lam10n21 ) ( * 1 lam10n26 ) ) 0 ) ( = ( + ( * ( - 1 ) lam10n22 ) ( * 1 lam10n27 ) ) 0 ) ( = ( * 1 lam10n28 ) 0 ) ( = ( + ( * 1 lam10n8 ) ( * ( - 1 ) lam10n23 ) ) 0 ) ( = ( + ( * 1 lam10n6 ) ( * ( - 1 ) lam10n7 ) ) 0 ) ( = ( + ( * ( - 1 ) lam10n14 ) ( * ( - 1 ) lam10n24 ) ) 0 ) ( = ( + ( * ( - 1 ) lam10n15 ) ( * ( - 1 ) lam10n25 ) ) 0 ) ( = ( + ( * ( - 1 ) lam10n16 ) ( * ( - 1 ) lam10n26 ) ) 0 ) ( = ( + ( * ( - 1 ) lam10n17 ) ( * ( - 1 ) lam10n27 ) ) 0 ) ( = ( + ( * ( - 1 ) lam10n2 ) ( * ( - 1 ) lam10n3 ) ( * ( - 1 ) lam10n8 ) ( * ( - 1 ) lam10n18 ) ( * ( - 1 ) lam10n28 ) ) 0 ) ) ( and ( >= lam11n0 0 ) ( >= lam11n1 0 ) ( >= lam11n2 0 ) ( >= lam11n3 0 ) ( >= lam11n4 0 ) ( >= lam11n5 0 ) ( >= lam11n6 0 ) ( >= lam11n29 0 ) ( > ( + ( * 1 lam11n0 ) ( * 1 lam11n1 ) ( * 1 lam11n2 ) ( * 1 lam11n3 ) ( * 1 lam11n4 ) ( * 1 lam11n5 ) ( * ( - 1 ) lam11n6 ) ( * Nl1CT1 lam11n29 ) ( - 1 ( + ( - ( + ( + ( + ( + ( + ( + ( + ( + RFN1_CT ( * RFN1_x0^0 0 ) ) ( * RFN1_x1^0 0 ) ) ( * RFN1_x2^0 0 ) ) ( * RFN1_x3^0 0 ) ) ( * RFN1_x4^0 0 ) ) ( * RFN1_x5^0 0 ) ) ( * RFN1_x6^0 0 ) ) ( * RFN1_x7^0 0 ) ) RFN1_CT ) 1 ) ) ) 0 ) ( = ( + ( * 1 lam11n0 ) ( * 1 lam11n7 ) ( * Nl1__const_347^01 lam11n29 ) ( - ( - ( + 0 RFN1___const_347^0 ) RFN1___const_347^0 ) ) ) 0 ) ( = ( + ( * 1 lam11n1 ) ( * 1 lam11n2 ) ( * 1 lam11n3 ) ( * 1 lam11n4 ) ( * 1 lam11n5 ) ( * Nl1__const_5551^01 lam11n29 ) ( - ( - ( + 0 RFN1___const_5551^0 ) RFN1___const_5551^0 ) ) ) 0 ) ( = ( + ( * 1 lam11n1 ) ( * 1 lam11n2 ) ( * 2 lam11n3 ) ( * 1 lam11n8 ) ( * Nl1__const_5552^01 lam11n29 ) ( - ( - ( + 0 RFN1___const_5552^0 ) RFN1___const_5552^0 ) ) ) 0 ) ( = ( + ( * 1 lam11n9 ) ( * Nl1x0^01 lam11n29 ) ( - ( - RFN1_x0^0 ) ) ) 0 ) ( = ( + ( * 1 lam11n10 ) ( * Nl1x1^01 lam11n29 ) ( - ( - RFN1_x1^0 ) ) ) 0 ) ( = ( + ( * 1 lam11n11 ) ( * Nl1x2^01 lam11n29 ) ( - ( - RFN1_x2^0 ) ) ) 0 ) ( = ( + ( * 1 lam11n12 ) ( * Nl1x3^01 lam11n29 ) ( - ( - RFN1_x3^0 ) ) ) 0 ) ( = ( + ( * ( - 1 ) lam11n1 ) ( * ( - 1 ) lam11n4 ) ( * 1 lam11n13 ) ( * Nl1x4^01 lam11n29 ) ( - ( - RFN1_x4^0 ) ) ) 0 ) ( = ( + ( * Nl1x5^01 lam11n29 ) ( - ( - RFN1_x5^0 ) ) ) 0 ) ( = ( + ( * Nl1x6^01 lam11n29 ) ( - ( - RFN1_x6^0 ) ) ) 0 ) ( = ( + ( * Nl1x7^01 lam11n29 ) ( - ( - RFN1_x7^0 ) ) ) 0 ) ( = ( + ( * ( - 1 ) lam11n9 ) ( * 1 lam11n14 ) ) 0 ) ( = ( + ( * ( - 1 ) lam11n10 ) ( * 1 lam11n15 ) ) 0 ) ( = ( + ( * ( - 1 ) lam11n11 ) ( * 1 lam11n16 ) ) 0 ) ( = ( + ( * ( - 1 ) lam11n12 ) ( * 1 lam11n17 ) ) 0 ) ( = ( + ( * ( - 1 ) lam11n5 ) ( * ( - 1 ) lam11n13 ) ( * 1 lam11n18 ) ) 0 ) ( = ( + ( * 1 lam11n19 ) ( - ( + 0 ( * RFN1_x0^0 1 ) ) ) ) 0 ) ( = ( - ( + 0 ( * RFN1_x7^0 1 ) ) ) 0 ) ( = ( + ( * 1 lam11n20 ) ( - ( + 0 ( * RFN1_x1^0 1 ) ) ) ) 0 ) ( = ( + ( * 1 lam11n21 ) ( - ( + 0 ( * RFN1_x2^0 1 ) ) ) ) 0 ) ( = ( + ( * 1 lam11n22 ) ( - ( + 0 ( * RFN1_x3^0 1 ) ) ) ) 0 ) ( = ( + ( * 1 lam11n23 ) ( - ( + 0 ( * RFN1_x4^0 1 ) ) ) ) 0 ) ( = ( - ( + 0 ( * RFN1_x5^0 1 ) ) ) 0 ) ( = ( - ( + 0 ( * RFN1_x6^0 1 ) ) ) 0 ) ( = ( + ( * ( - 1 ) lam11n19 ) ( * 1 lam11n24 ) ) 0 ) ( = ( + ( * ( - 1 ) lam11n20 ) ( * 1 lam11n25 ) ) 0 ) ( = ( + ( * ( - 1 ) lam11n21 ) ( * 1 lam11n26 ) ) 0 ) ( = ( + ( * ( - 1 ) lam11n22 ) ( * 1 lam11n27 ) ) 0 ) ( = ( * 1 lam11n28 ) 0 ) ( = ( + ( * 1 lam11n8 ) ( * ( - 1 ) lam11n23 ) ) 0 ) ( = ( + ( * 1 lam11n6 ) ( * ( - 1 ) lam11n7 ) ) 0 ) ( = ( + ( * ( - 1 ) lam11n14 ) ( * ( - 1 ) lam11n24 ) ) 0 ) ( = ( + ( * ( - 1 ) lam11n15 ) ( * ( - 1 ) lam11n25 ) ) 0 ) ( = ( + ( * ( - 1 ) lam11n16 ) ( * ( - 1 ) lam11n26 ) ) 0 ) ( = ( + ( * ( - 1 ) lam11n17 ) ( * ( - 1 ) lam11n27 ) ) 0 ) ( = ( + ( * ( - 1 ) lam11n2 ) ( * ( - 1 ) lam11n3 ) ( * ( - 1 ) lam11n8 ) ( * ( - 1 ) lam11n18 ) ( * ( - 1 ) lam11n28 ) ) 0 ) ) ) ) ( and ( >= lam9n0 0 ) ( >= lam9n1 0 ) ( >= lam9n2 0 ) ( >= lam9n3 0 ) ( >= lam9n4 0 ) ( >= lam9n5 0 ) ( >= lam9n6 0 ) ( >= lam9n29 0 ) ( > ( + ( * 1 lam9n0 ) ( * 1 lam9n1 ) ( * 1 lam9n2 ) ( * 1 lam9n3 ) ( * 1 lam9n4 ) ( * 1 lam9n5 ) ( * ( - 1 ) lam9n6 ) ( * Nl1CT1 lam9n29 ) ( - 1 ) ) 0 ) ( = ( + ( * 1 lam9n0 ) ( * 1 lam9n7 ) ( * Nl1__const_347^01 lam9n29 ) ) 0 ) ( = ( + ( * 1 lam9n1 ) ( * 1 lam9n2 ) ( * 1 lam9n3 ) ( * 1 lam9n4 ) ( * 1 lam9n5 ) ( * Nl1__const_5551^01 lam9n29 ) ) 0 ) ( = ( + ( * 1 lam9n1 ) ( * 1 lam9n2 ) ( * 2 lam9n3 ) ( * 1 lam9n8 ) ( * Nl1__const_5552^01 lam9n29 ) ) 0 ) ( = ( + ( * 1 lam9n9 ) ( * Nl1x0^01 lam9n29 ) ) 0 ) ( = ( + ( * 1 lam9n10 ) ( * Nl1x1^01 lam9n29 ) ) 0 ) ( = ( + ( * 1 lam9n11 ) ( * Nl1x2^01 lam9n29 ) ) 0 ) ( = ( + ( * 1 lam9n12 ) ( * Nl1x3^01 lam9n29 ) ) 0 ) ( = ( + ( * ( - 1 ) lam9n1 ) ( * ( - 1 ) lam9n4 ) ( * 1 lam9n13 ) ( * Nl1x4^01 lam9n29 ) ) 0 ) ( = ( * Nl1x5^01 lam9n29 ) 0 ) ( = ( * Nl1x6^01 lam9n29 ) 0 ) ( = ( * Nl1x7^01 lam9n29 ) 0 ) ( = ( + ( * ( - 1 ) lam9n9 ) ( * 1 lam9n14 ) ) 0 ) ( = ( + ( * ( - 1 ) lam9n10 ) ( * 1 lam9n15 ) ) 0 ) ( = ( + ( * ( - 1 ) lam9n11 ) ( * 1 lam9n16 ) ) 0 ) ( = ( + ( * ( - 1 ) lam9n12 ) ( * 1 lam9n17 ) ) 0 ) ( = ( + ( * ( - 1 ) lam9n5 ) ( * ( - 1 ) lam9n13 ) ( * 1 lam9n18 ) ) 0 ) ( = ( * 1 lam9n19 ) 0 ) ( = ( * 1 lam9n20 ) 0 ) ( = ( * 1 lam9n21 ) 0 ) ( = ( * 1 lam9n22 ) 0 ) ( = ( * 1 lam9n23 ) 0 ) ( = ( + ( * ( - 1 ) lam9n19 ) ( * 1 lam9n24 ) ) 0 ) ( = ( + ( * ( - 1 ) lam9n20 ) ( * 1 lam9n25 ) ) 0 ) ( = ( + ( * ( - 1 ) lam9n21 ) ( * 1 lam9n26 ) ) 0 ) ( = ( + ( * ( - 1 ) lam9n22 ) ( * 1 lam9n27 ) ) 0 ) ( = ( * 1 lam9n28 ) 0 ) ( = ( + ( * 1 lam9n8 ) ( * ( - 1 ) lam9n23 ) ) 0 ) ( = ( + ( * 1 lam9n6 ) ( * ( - 1 ) lam9n7 ) ) 0 ) ( = ( + ( * ( - 1 ) lam9n14 ) ( * ( - 1 ) lam9n24 ) ) 0 ) ( = ( + ( * ( - 1 ) lam9n15 ) ( * ( - 1 ) lam9n25 ) ) 0 ) ( = ( + ( * ( - 1 ) lam9n16 ) ( * ( - 1 ) lam9n26 ) ) 0 ) ( = ( + ( * ( - 1 ) lam9n17 ) ( * ( - 1 ) lam9n27 ) ) 0 ) ( = ( + ( * ( - 1 ) lam9n2 ) ( * ( - 1 ) lam9n3 ) ( * ( - 1 ) lam9n8 ) ( * ( - 1 ) lam9n18 ) ( * ( - 1 ) lam9n28 ) ) 0 ) ) ))
(check-sat)
(exit)
